p wcnf 147 220 221 
1 -33 41 0 
1 102 139 0 
1 81 61 0 
1 -41 140 0 
1 -1 -27 0 
1 -111 -35 0 
1 -54 -106 0 
1 146 65 0 
1 -37 74 0 
1 -122 -48 0 
1 132 77 0 
1 -10 -115 0 
1 -90 -58 0 
1 110 -1 0 
1 82 90 0 
1 -58 -73 0 
1 -128 18 0 
1 -122 -16 0 
1 105 -89 0 
1 79 -58 0 
1 1 -119 0 
1 72 46 0 
1 116 44 0 
1 68 9 0 
1 87 -55 0 
1 -113 130 0 
1 -8 21 0 
1 -25 127 0 
1 -113 52 0 
1 87 -86 0 
1 50 144 0 
1 9 6 0 
1 -72 17 0 
1 143 139 0 
1 -114 -2 0 
1 66 89 0 
1 143 9 0 
1 59 -71 0 
1 1 120 0 
1 -79 66 0 
1 42 -30 0 
1 -107 -13 0 
1 58 -44 0 
1 -61 -117 0 
1 -23 -93 0 
1 8 -18 0 
1 52 109 0 
1 -65 64 0 
1 -120 -27 0 
1 -5 33 0 
1 -125 -90 0 
1 -31 -71 0 
1 -95 -72 0 
1 130 75 0 
1 -49 46 0 
1 144 67 0 
1 108 46 0 
1 64 123 0 
1 -125 102 0 
1 -83 -84 0 
1 -21 -137 0 
1 -27 22 0 
1 117 -28 0 
1 -21 -55 0 
1 -96 38 0 
1 105 146 0 
1 -141 -60 0 
1 -108 146 0 
1 47 81 0 
1 -73 -71 0 
1 61 69 0 
1 104 -95 0 
1 4 -83 0 
1 38 -146 0 
1 138 108 0 
1 83 50 0 
1 91 21 0 
1 33 -46 0 
1 14 10 0 
1 -15 -146 0 
1 -111 -85 0 
1 5 -121 0 
1 62 54 0 
1 -53 56 0 
1 -38 -13 0 
1 91 -143 0 
1 -86 63 0 
1 23 -40 0 
1 -37 -77 0 
1 144 -58 0 
1 81 114 0 
1 50 -146 0 
1 -70 -23 0 
1 -93 -135 0 
1 49 -21 0 
1 -108 -103 0 
1 129 111 0 
1 -117 -106 0 
1 130 122 0 
1 -137 -15 0 
1 -4 83 0 
1 54 -144 0 
1 91 58 0 
1 -55 1 0 
1 -127 69 0 
1 -63 35 0 
1 108 16 0 
1 -14 -75 0 
1 -107 49 0 
1 -82 -72 0 
1 78 3 0 
1 -18 -26 0 
1 -16 -144 0 
1 56 64 0 
1 89 -57 0 
1 -24 -128 0 
1 -138 16 0 
1 102 -54 0 
1 -55 -117 0 
1 -106 -91 0 
1 -65 -102 0 
1 -91 -8 0 
1 -73 96 0 
1 -97 26 0 
1 -130 -15 0 
1 -97 70 0 
1 -19 22 0 
1 -133 5 0 
1 65 136 0 
1 64 -88 0 
1 -117 37 0 
1 -24 96 0 
1 23 -107 0 
1 76 118 0 
1 4 143 0 
1 -35 57 0 
1 -57 -10 0 
1 126 -85 0 
1 109 -24 0 
1 -126 119 0 
1 125 50 0 
1 5 33 0 
1 -102 -108 0 
1 -112 3 0 
1 -142 84 0 
1 -50 71 0 
1 33 124 0 
1 -103 107 0 
1 -69 -13 0 
1 58 91 0 
1 -29 -133 0 
1 -136 49 0 
1 -11 -114 0 
1 79 65 0 
1 -66 104 0 
1 137 15 0 
1 141 83 0 
1 -10 -63 0 
1 -77 -27 0 
1 -81 -82 0 
1 113 144 0 
1 -41 141 0 
1 143 115 0 
1 125 29 0 
1 -75 63 0 
1 -45 -7 0 
1 13 101 0 
1 76 130 0 
1 -49 -129 0 
1 44 65 0 
1 116 139 0 
1 10 -42 0 
1 -31 132 0 
1 -75 132 0 
1 -118 23 0 
1 109 118 0 
1 -13 -16 0 
1 -132 40 0 
1 -55 -79 0 
1 -79 42 0 
1 83 137 0 
1 -33 -6 0 
1 120 43 0 
1 -72 -136 0 
1 -18 -50 0 
1 -95 56 0 
1 -61 16 0 
1 63 -102 0 
1 40 130 0 
1 -95 124 0 
1 96 -70 0 
1 -137 42 0 
1 -3 -9 0 
1 -51 88 0 
1 58 -33 0 
1 127 95 0 
1 -33 -4 0 
1 10 113 0 
1 -141 -135 0 
1 125 122 0 
1 -84 63 0 
1 36 -119 0 
1 -138 84 0 
1 20 -33 0 
1 124 74 0 
1 4 32 0 
1 36 -68 0 
1 -121 69 0 
1 -20 11 0 
1 23 -67 0 
1 97 -123 0 
1 -99 -72 0 
1 141 131 0 
1 79 -74 0 
1 47 -100 0 
1 94 -99 0 
1 121 -14 0 
1 77 -67 0 
1 144 37 0 
1 -106 -12 0 
